c colouring generated by benchmark framework
p edge 23 71
v 1 2
v 2 0
v 3 1
v 4 1
v 5 2
v 6 2
v 7 3
v 8 1
v 9 4
v 10 2
v 11 0
v 12 2
v 13 3
v 14 1
v 15 0
v 16 0
v 17 2
v 18 3
v 19 1
v 20 3
v 21 2
v 22 0
v 23 4
